149
100000
22513
48183
29742
4900
48624
41130
12300
7537
41436
5395
6736
20591
16797
3154
18824
35025
11163
11747
9952
8070
8207
17326
47928
6079
35910
7427
47518
516
19966
46922
3200
25793
12202
12224
1602
5658
26085
16762
18181
29091
6412
48261
17191
11158
130
14047
13630
6032
21744
348
23167
20191
16727
2323
9432
17319
23009
5188
5639
49133
12
22797
22622
726
17491
19104
28944
22427
4147
5355
36137
336
9878
26674
1902
16267
27520
31936
45821
23447
1769
14421
4196
18066
6752
18215
20958
35274
40730
26942
5617
13923
18352
31663
1848
44247
30632
10433
8576
1097
44773
2613
25036
6933
31559
38971
29239
44167
37005
8490
25940
28900
5451
12838
45628
34354
26026
6937
24698
13489
8959
11418
49214
5305
15071
35343
28481
39120
4350
7007
45430
20935
8966
2757
37953
1421
10508
8973
42366
16458
17986
32826
44702
9683
32857
42712
42712
24259
38430
